language Essence 1.3

letting bot_end be [21, 31, 250, 755, 1, 159, 63, 776, 757, 7, 668, 73, 695, 797, 772, 58, 6; int(1..17)]
letting bot_start be [497, 611, 735, 257, 507, 687, 582, 267, 247, 457, 170, 563, 77, 301, 244, 536, 533; int(1..17)]
letting buffer_col be 2
letting buffer_row be 2
letting corridor_size be 2
letting n_shelves_col be 1
letting n_shelves_row be 32
letting shelf_col_size be 2
letting shelf_row_size be 1
